Objective implementation: greybox (external)
Ipopt 3.14.19: linear_solver=mumps
output_file=ipopt.out
file_print_level=12


******************************************************************************
This program contains Ipopt, a library for large-scale nonlinear optimization.
 Ipopt is released as open source code under the Eclipse Public License (EPL).
         For more information visit https://github.com/coin-or/Ipopt
******************************************************************************

This is Ipopt version 3.14.19, running with linear solver MUMPS 5.8.1.

Number of nonzeros in equality constraint Jacobian...:      603
Number of nonzeros in inequality constraint Jacobian.:        0
Number of nonzeros in Lagrangian Hessian.............:       66

Total number of variables............................:      175
                     variables with only lower bounds:       91
                variables with lower and upper bounds:       22
                     variables with only upper bounds:        0
Total number of equality constraints.................:      175
Total number of inequality constraints...............:        0
        inequality constraints with only lower bounds:        0
   inequality constraints with lower and upper bounds:        0
        inequality constraints with only upper bounds:        0

iter    objective    inf_pr   inf_du lg(mu)  ||d||  lg(rg) alpha_du alpha_pr  ls
   0  0.0000000e+00 3.30e+02 1.00e+00  -1.0 0.00e+00    -  0.00e+00 0.00e+00   0
   1  0.0000000e+00 3.30e+00 4.25e+02  -1.0 6.52e+01    -  2.30e-03 9.90e-01f  1
   2  0.0000000e+00 3.27e-02 4.21e+00  -1.0 6.52e-01    -  9.90e-01 9.90e-01h  1
   3  0.0000000e+00 3.28e-09 0.00e+00  -1.0 6.46e-03    -  1.00e+00 1.00e+00h  1

Number of Iterations....: 3

                                   (scaled)                 (unscaled)
Objective...............:   0.0000000000000000e+00    0.0000000000000000e+00
Dual infeasibility......:   0.0000000000000000e+00    0.0000000000000000e+00
Constraint violation....:   3.2791820370192681e-09    3.2791820370192681e-09
Variable bound violation:   0.0000000000000000e+00    0.0000000000000000e+00
Complementarity.........:   0.0000000000000000e+00    0.0000000000000000e+00
Overall NLP error.......:   3.2791820370192681e-09    3.2791820370192681e-09


Number of objective function evaluations             = 4
Number of objective gradient evaluations             = 4
Number of equality constraint evaluations            = 4
Number of inequality constraint evaluations          = 0
Number of equality constraint Jacobian evaluations   = 4
Number of inequality constraint Jacobian evaluations = 0
Number of Lagrangian Hessian evaluations             = 3
Total seconds in IPOPT                               = 0.061

EXIT: Optimal Solution Found.
Ipopt 3.14.19: linear_solver=mumps
output_file=ipopt.out
file_print_level=12


******************************************************************************
This program contains Ipopt, a library for large-scale nonlinear optimization.
 Ipopt is released as open source code under the Eclipse Public License (EPL).
         For more information visit https://github.com/coin-or/Ipopt
******************************************************************************

This is Ipopt version 3.14.19, running with linear solver MUMPS 5.8.1.

Number of nonzeros in equality constraint Jacobian...:      603
Number of nonzeros in inequality constraint Jacobian.:        0
Number of nonzeros in Lagrangian Hessian.............:       66

Total number of variables............................:      175
                     variables with only lower bounds:       91
                variables with lower and upper bounds:       22
                     variables with only upper bounds:        0
Total number of equality constraints.................:      175
Total number of inequality constraints...............:        0
        inequality constraints with only lower bounds:        0
   inequality constraints with lower and upper bounds:        0
        inequality constraints with only upper bounds:        0

iter    objective    inf_pr   inf_du lg(mu)  ||d||  lg(rg) alpha_du alpha_pr  ls
   0  0.0000000e+00 3.00e+00 1.00e+00  -1.0 0.00e+00    -  0.00e+00 0.00e+00   0
   1  0.0000000e+00 3.00e-02 6.18e-02  -1.0 3.00e+00    -  9.83e-01 9.90e-01h  1
   2  0.0000000e+00 2.97e-04 9.90e+00  -1.0 3.00e-02    -  1.00e+00 9.90e-01h  1
   3  0.0000000e+00 7.21e-11 0.00e+00  -1.0 2.97e-04    -  1.00e+00 1.00e+00h  1

Number of Iterations....: 3

                                   (scaled)                 (unscaled)
Objective...............:   0.0000000000000000e+00    0.0000000000000000e+00
Dual infeasibility......:   0.0000000000000000e+00    0.0000000000000000e+00
Constraint violation....:   7.2069239465122337e-11    7.2069239465122337e-11
Variable bound violation:   0.0000000000000000e+00    0.0000000000000000e+00
Complementarity.........:   0.0000000000000000e+00    0.0000000000000000e+00
Overall NLP error.......:   7.2069239465122337e-11    7.2069239465122337e-11


Number of objective function evaluations             = 4
Number of objective gradient evaluations             = 4
Number of equality constraint evaluations            = 4
Number of inequality constraint evaluations          = 0
Number of equality constraint Jacobian evaluations   = 4
Number of inequality constraint Jacobian evaluations = 0
Number of Lagrangian Hessian evaluations             = 3
Total seconds in IPOPT                               = 0.057

EXIT: Optimal Solution Found.
Ipopt 3.14.19: linear_solver=mumps
output_file=ipopt.out
file_print_level=12


******************************************************************************
This program contains Ipopt, a library for large-scale nonlinear optimization.
 Ipopt is released as open source code under the Eclipse Public License (EPL).
         For more information visit https://github.com/coin-or/Ipopt
******************************************************************************

This is Ipopt version 3.14.19, running with linear solver MUMPS 5.8.1.

Number of nonzeros in equality constraint Jacobian...:      603
Number of nonzeros in inequality constraint Jacobian.:        0
Number of nonzeros in Lagrangian Hessian.............:       66

Total number of variables............................:      175
                     variables with only lower bounds:       91
                variables with lower and upper bounds:       22
                     variables with only upper bounds:        0
Total number of equality constraints.................:      175
Total number of inequality constraints...............:        0
        inequality constraints with only lower bounds:        0
   inequality constraints with lower and upper bounds:        0
        inequality constraints with only upper bounds:        0

iter    objective    inf_pr   inf_du lg(mu)  ||d||  lg(rg) alpha_du alpha_pr  ls
   0  0.0000000e+00 3.00e+00 1.00e+00  -1.0 0.00e+00    -  0.00e+00 0.00e+00   0
   1  0.0000000e+00 3.00e-02 6.18e-02  -1.0 3.00e+00    -  9.83e-01 9.90e-01h  1
   2  0.0000000e+00 2.97e-04 9.90e+00  -1.0 3.00e-02    -  1.00e+00 9.90e-01h  1
   3  0.0000000e+00 7.41e-11 0.00e+00  -1.0 2.97e-04    -  1.00e+00 1.00e+00h  1

Number of Iterations....: 3

                                   (scaled)                 (unscaled)
Objective...............:   0.0000000000000000e+00    0.0000000000000000e+00
Dual infeasibility......:   0.0000000000000000e+00    0.0000000000000000e+00
Constraint violation....:   7.4073858158385519e-11    7.4073858158385519e-11
Variable bound violation:   0.0000000000000000e+00    0.0000000000000000e+00
Complementarity.........:   0.0000000000000000e+00    0.0000000000000000e+00
Overall NLP error.......:   7.4073858158385519e-11    7.4073858158385519e-11


Number of objective function evaluations             = 4
Number of objective gradient evaluations             = 4
Number of equality constraint evaluations            = 4
Number of inequality constraint evaluations          = 0
Number of equality constraint Jacobian evaluations   = 4
Number of inequality constraint Jacobian evaluations = 0
Number of Lagrangian Hessian evaluations             = 3
Total seconds in IPOPT                               = 0.058

EXIT: Optimal Solution Found.
Ipopt 3.14.19: linear_solver=mumps
output_file=ipopt.out
file_print_level=12


******************************************************************************
This program contains Ipopt, a library for large-scale nonlinear optimization.
 Ipopt is released as open source code under the Eclipse Public License (EPL).
         For more information visit https://github.com/coin-or/Ipopt
******************************************************************************

This is Ipopt version 3.14.19, running with linear solver MUMPS 5.8.1.

Number of nonzeros in equality constraint Jacobian...:      603
Number of nonzeros in inequality constraint Jacobian.:        0
Number of nonzeros in Lagrangian Hessian.............:       66

Total number of variables............................:      175
                     variables with only lower bounds:       91
                variables with lower and upper bounds:       22
                     variables with only upper bounds:        0
Total number of equality constraints.................:      175
Total number of inequality constraints...............:        0
        inequality constraints with only lower bounds:        0
   inequality constraints with lower and upper bounds:        0
        inequality constraints with only upper bounds:        0

iter    objective    inf_pr   inf_du lg(mu)  ||d||  lg(rg) alpha_du alpha_pr  ls
   0  0.0000000e+00 3.00e+00 1.00e+00  -1.0 0.00e+00    -  0.00e+00 0.00e+00   0
   1  0.0000000e+00 3.00e-02 6.18e-02  -1.0 3.00e+00    -  9.83e-01 9.90e-01h  1
   2  0.0000000e+00 2.97e-04 9.90e+00  -1.0 3.00e-02    -  1.00e+00 9.90e-01h  1
   3  0.0000000e+00 7.63e-11 0.00e+00  -1.0 2.97e-04    -  1.00e+00 1.00e+00h  1

Number of Iterations....: 3

                                   (scaled)                 (unscaled)
Objective...............:   0.0000000000000000e+00    0.0000000000000000e+00
Dual infeasibility......:   0.0000000000000000e+00    0.0000000000000000e+00
Constraint violation....:   7.6339379262435614e-11    7.6339379262435614e-11
Variable bound violation:   0.0000000000000000e+00    0.0000000000000000e+00
Complementarity.........:   0.0000000000000000e+00    0.0000000000000000e+00
Overall NLP error.......:   7.6339379262435614e-11    7.6339379262435614e-11


Number of objective function evaluations             = 4
Number of objective gradient evaluations             = 4
Number of equality constraint evaluations            = 4
Number of inequality constraint evaluations          = 0
Number of equality constraint Jacobian evaluations   = 4
Number of inequality constraint Jacobian evaluations = 0
Number of Lagrangian Hessian evaluations             = 3
Total seconds in IPOPT                               = 0.059

EXIT: Optimal Solution Found.
Ipopt 3.14.19: linear_solver=mumps
output_file=ipopt.out
file_print_level=12


******************************************************************************
This program contains Ipopt, a library for large-scale nonlinear optimization.
 Ipopt is released as open source code under the Eclipse Public License (EPL).
         For more information visit https://github.com/coin-or/Ipopt
******************************************************************************

This is Ipopt version 3.14.19, running with linear solver MUMPS 5.8.1.

Number of nonzeros in equality constraint Jacobian...:      603
Number of nonzeros in inequality constraint Jacobian.:        0
Number of nonzeros in Lagrangian Hessian.............:       66

Total number of variables............................:      175
                     variables with only lower bounds:       91
                variables with lower and upper bounds:       22
                     variables with only upper bounds:        0
Total number of equality constraints.................:      175
Total number of inequality constraints...............:        0
        inequality constraints with only lower bounds:        0
   inequality constraints with lower and upper bounds:        0
        inequality constraints with only upper bounds:        0

iter    objective    inf_pr   inf_du lg(mu)  ||d||  lg(rg) alpha_du alpha_pr  ls
   0  0.0000000e+00 3.00e+00 1.00e+00  -1.0 0.00e+00    -  0.00e+00 0.00e+00   0
   1  0.0000000e+00 3.00e-02 6.18e-02  -1.0 3.00e+00    -  9.83e-01 9.90e-01h  1
   2  0.0000000e+00 2.97e-04 9.90e+00  -1.0 3.00e-02    -  1.00e+00 9.90e-01h  1
   3  0.0000000e+00 6.98e-11 0.00e+00  -1.0 2.97e-04    -  1.00e+00 1.00e+00h  1

Number of Iterations....: 3

                                   (scaled)                 (unscaled)
Objective...............:   0.0000000000000000e+00    0.0000000000000000e+00
Dual infeasibility......:   0.0000000000000000e+00    0.0000000000000000e+00
Constraint violation....:   6.9803940405677167e-11    6.9803940405677167e-11
Variable bound violation:   0.0000000000000000e+00    0.0000000000000000e+00
Complementarity.........:   0.0000000000000000e+00    0.0000000000000000e+00
Overall NLP error.......:   6.9803940405677167e-11    6.9803940405677167e-11


Number of objective function evaluations             = 4
Number of objective gradient evaluations             = 4
Number of equality constraint evaluations            = 4
Number of inequality constraint evaluations          = 0
Number of equality constraint Jacobian evaluations   = 4
Number of inequality constraint Jacobian evaluations = 0
Number of Lagrangian Hessian evaluations             = 3
Total seconds in IPOPT                               = 0.062

EXIT: Optimal Solution Found.
Ipopt 3.14.19: linear_solver=mumps
output_file=ipopt.out
file_print_level=12


******************************************************************************
This program contains Ipopt, a library for large-scale nonlinear optimization.
 Ipopt is released as open source code under the Eclipse Public License (EPL).
         For more information visit https://github.com/coin-or/Ipopt
******************************************************************************

This is Ipopt version 3.14.19, running with linear solver MUMPS 5.8.1.

Number of nonzeros in equality constraint Jacobian...:      603
Number of nonzeros in inequality constraint Jacobian.:        0
Number of nonzeros in Lagrangian Hessian.............:       66

Total number of variables............................:      175
                     variables with only lower bounds:       91
                variables with lower and upper bounds:       22
                     variables with only upper bounds:        0
Total number of equality constraints.................:      175
Total number of inequality constraints...............:        0
        inequality constraints with only lower bounds:        0
   inequality constraints with lower and upper bounds:        0
        inequality constraints with only upper bounds:        0

iter    objective    inf_pr   inf_du lg(mu)  ||d||  lg(rg) alpha_du alpha_pr  ls
   0  0.0000000e+00 3.00e+00 1.00e+00  -1.0 0.00e+00    -  0.00e+00 0.00e+00   0
   1  0.0000000e+00 3.00e-02 6.18e-02  -1.0 3.00e+00    -  9.83e-01 9.90e-01h  1
   2  0.0000000e+00 2.97e-04 9.90e+00  -1.0 3.00e-02    -  1.00e+00 9.90e-01h  1
   3  0.0000000e+00 7.66e-11 0.00e+00  -1.0 2.97e-04    -  1.00e+00 1.00e+00h  1

Number of Iterations....: 3

                                   (scaled)                 (unscaled)
Objective...............:   0.0000000000000000e+00    0.0000000000000000e+00
Dual infeasibility......:   0.0000000000000000e+00    0.0000000000000000e+00
Constraint violation....:   7.6645800817232157e-11    7.6645800817232157e-11
Variable bound violation:   0.0000000000000000e+00    0.0000000000000000e+00
Complementarity.........:   0.0000000000000000e+00    0.0000000000000000e+00
Overall NLP error.......:   7.6645800817232157e-11    7.6645800817232157e-11


Number of objective function evaluations             = 4
Number of objective gradient evaluations             = 4
Number of equality constraint evaluations            = 4
Number of inequality constraint evaluations          = 0
Number of equality constraint Jacobian evaluations   = 4
Number of inequality constraint Jacobian evaluations = 0
Number of Lagrangian Hessian evaluations             = 3
Total seconds in IPOPT                               = 0.061

EXIT: Optimal Solution Found.
Ipopt 3.14.19: linear_solver=mumps
output_file=ipopt.out
file_print_level=12


******************************************************************************
This program contains Ipopt, a library for large-scale nonlinear optimization.
 Ipopt is released as open source code under the Eclipse Public License (EPL).
         For more information visit https://github.com/coin-or/Ipopt
******************************************************************************

This is Ipopt version 3.14.19, running with linear solver MUMPS 5.8.1.

Number of nonzeros in equality constraint Jacobian...:      603
Number of nonzeros in inequality constraint Jacobian.:        0
Number of nonzeros in Lagrangian Hessian.............:       66

Total number of variables............................:      175
                     variables with only lower bounds:       91
                variables with lower and upper bounds:       22
                     variables with only upper bounds:        0
Total number of equality constraints.................:      175
Total number of inequality constraints...............:        0
        inequality constraints with only lower bounds:        0
   inequality constraints with lower and upper bounds:        0
        inequality constraints with only upper bounds:        0

iter    objective    inf_pr   inf_du lg(mu)  ||d||  lg(rg) alpha_du alpha_pr  ls
   0  0.0000000e+00 3.00e+00 1.00e+00  -1.0 0.00e+00    -  0.00e+00 0.00e+00   0
   1  0.0000000e+00 3.00e-02 6.18e-02  -1.0 3.00e+00    -  9.83e-01 9.90e-01h  1
   2  0.0000000e+00 2.97e-04 9.90e+00  -1.0 3.00e-02    -  1.00e+00 9.90e-01h  1
   3  0.0000000e+00 6.95e-11 0.00e+00  -1.0 2.97e-04    -  1.00e+00 1.00e+00h  1

Number of Iterations....: 3

                                   (scaled)                 (unscaled)
Objective...............:   0.0000000000000000e+00    0.0000000000000000e+00
Dual infeasibility......:   0.0000000000000000e+00    0.0000000000000000e+00
Constraint violation....:   6.9535932567532655e-11    6.9535932567532655e-11
Variable bound violation:   0.0000000000000000e+00    0.0000000000000000e+00
Complementarity.........:   0.0000000000000000e+00    0.0000000000000000e+00
Overall NLP error.......:   6.9535932567532655e-11    6.9535932567532655e-11


Number of objective function evaluations             = 4
Number of objective gradient evaluations             = 4
Number of equality constraint evaluations            = 4
Number of inequality constraint evaluations          = 0
Number of equality constraint Jacobian evaluations   = 4
Number of inequality constraint Jacobian evaluations = 0
Number of Lagrangian Hessian evaluations             = 3
Total seconds in IPOPT                               = 0.046

EXIT: Optimal Solution Found.
Ipopt 3.14.19: linear_solver=mumps
output_file=ipopt.out
file_print_level=12


******************************************************************************
This program contains Ipopt, a library for large-scale nonlinear optimization.
 Ipopt is released as open source code under the Eclipse Public License (EPL).
         For more information visit https://github.com/coin-or/Ipopt
******************************************************************************

This is Ipopt version 3.14.19, running with linear solver MUMPS 5.8.1.

Number of nonzeros in equality constraint Jacobian...:      603
Number of nonzeros in inequality constraint Jacobian.:        0
Number of nonzeros in Lagrangian Hessian.............:       66

Total number of variables............................:      175
                     variables with only lower bounds:       91
                variables with lower and upper bounds:       22
                     variables with only upper bounds:        0
Total number of equality constraints.................:      175
Total number of inequality constraints...............:        0
        inequality constraints with only lower bounds:        0
   inequality constraints with lower and upper bounds:        0
        inequality constraints with only upper bounds:        0

iter    objective    inf_pr   inf_du lg(mu)  ||d||  lg(rg) alpha_du alpha_pr  ls
   0  0.0000000e+00 3.00e+00 1.00e+00  -1.0 0.00e+00    -  0.00e+00 0.00e+00   0
   1  0.0000000e+00 3.00e-02 6.18e-02  -1.0 3.00e+00    -  9.83e-01 9.90e-01h  1
   2  0.0000000e+00 2.97e-04 9.90e+00  -1.0 3.00e-02    -  1.00e+00 9.90e-01h  1
   3  0.0000000e+00 5.75e-11 0.00e+00  -1.0 2.97e-04    -  1.00e+00 1.00e+00h  1

Number of Iterations....: 3

                                   (scaled)                 (unscaled)
Objective...............:   0.0000000000000000e+00    0.0000000000000000e+00
Dual infeasibility......:   0.0000000000000000e+00    0.0000000000000000e+00
Constraint violation....:   5.7547522303025289e-11    5.7547522303025289e-11
Variable bound violation:   0.0000000000000000e+00    0.0000000000000000e+00
Complementarity.........:   0.0000000000000000e+00    0.0000000000000000e+00
Overall NLP error.......:   5.7547522303025289e-11    5.7547522303025289e-11


Number of objective function evaluations             = 4
Number of objective gradient evaluations             = 4
Number of equality constraint evaluations            = 4
Number of inequality constraint evaluations          = 0
Number of equality constraint Jacobian evaluations   = 4
Number of inequality constraint Jacobian evaluations = 0
Number of Lagrangian Hessian evaluations             = 3
Total seconds in IPOPT                               = 0.064

EXIT: Optimal Solution Found.
Ipopt 3.14.19: linear_solver=mumps
output_file=ipopt.out
file_print_level=12


******************************************************************************
This program contains Ipopt, a library for large-scale nonlinear optimization.
 Ipopt is released as open source code under the Eclipse Public License (EPL).
         For more information visit https://github.com/coin-or/Ipopt
******************************************************************************

This is Ipopt version 3.14.19, running with linear solver MUMPS 5.8.1.

Number of nonzeros in equality constraint Jacobian...:      603
Number of nonzeros in inequality constraint Jacobian.:        0
Number of nonzeros in Lagrangian Hessian.............:       66

Total number of variables............................:      175
                     variables with only lower bounds:       91
                variables with lower and upper bounds:       22
                     variables with only upper bounds:        0
Total number of equality constraints.................:      175
Total number of inequality constraints...............:        0
        inequality constraints with only lower bounds:        0
   inequality constraints with lower and upper bounds:        0
        inequality constraints with only upper bounds:        0

iter    objective    inf_pr   inf_du lg(mu)  ||d||  lg(rg) alpha_du alpha_pr  ls
   0  0.0000000e+00 3.00e+00 1.00e+00  -1.0 0.00e+00    -  0.00e+00 0.00e+00   0
   1  0.0000000e+00 3.00e-02 6.18e-02  -1.0 3.00e+00    -  9.83e-01 9.90e-01h  1
   2  0.0000000e+00 2.97e-04 9.90e+00  -1.0 3.00e-02    -  1.00e+00 9.90e-01h  1
   3  0.0000000e+00 8.88e-11 0.00e+00  -1.0 2.97e-04    -  1.00e+00 1.00e+00h  1

Number of Iterations....: 3

                                   (scaled)                 (unscaled)
Objective...............:   0.0000000000000000e+00    0.0000000000000000e+00
Dual infeasibility......:   0.0000000000000000e+00    0.0000000000000000e+00
Constraint violation....:   8.8812956988704173e-11    8.8812956988704173e-11
Variable bound violation:   0.0000000000000000e+00    0.0000000000000000e+00
Complementarity.........:   0.0000000000000000e+00    0.0000000000000000e+00
Overall NLP error.......:   8.8812956988704173e-11    8.8812956988704173e-11


Number of objective function evaluations             = 4
Number of objective gradient evaluations             = 4
Number of equality constraint evaluations            = 4
Number of inequality constraint evaluations          = 0
Number of equality constraint Jacobian evaluations   = 4
Number of inequality constraint Jacobian evaluations = 0
Number of Lagrangian Hessian evaluations             = 3
Total seconds in IPOPT                               = 0.060

EXIT: Optimal Solution Found.
Ipopt 3.14.19: linear_solver=mumps
output_file=ipopt.out
file_print_level=12


******************************************************************************
This program contains Ipopt, a library for large-scale nonlinear optimization.
 Ipopt is released as open source code under the Eclipse Public License (EPL).
         For more information visit https://github.com/coin-or/Ipopt
******************************************************************************

This is Ipopt version 3.14.19, running with linear solver MUMPS 5.8.1.

Number of nonzeros in equality constraint Jacobian...:     6183
Number of nonzeros in inequality constraint Jacobian.:        0
Number of nonzeros in Lagrangian Hessian.............:      980

Total number of variables............................:     1588
                     variables with only lower bounds:      728
                variables with lower and upper bounds:      246
                     variables with only upper bounds:        0
Total number of equality constraints.................:     1588
Total number of inequality constraints...............:        0
        inequality constraints with only lower bounds:        0
   inequality constraints with lower and upper bounds:        0
        inequality constraints with only upper bounds:        0

iter    objective    inf_pr   inf_du lg(mu)  ||d||  lg(rg) alpha_du alpha_pr  ls
   0  0.0000000e+00 9.90e+01 1.00e+00  -1.0 0.00e+00    -  0.00e+00 0.00e+00   0
   1  0.0000000e+00 9.98e+01 1.08e+01  -1.0 4.78e+02    -  9.83e-01 3.87e-03h  9
   2  0.0000000e+00 1.01e+02 2.07e+01  -1.0 5.28e+02    -  1.00e+00 3.87e-03h  9
   3  0.0000000e+00 1.01e+02 3.07e+01  -1.0 1.09e+03    -  1.00e+00 3.87e-03h  9
   4  0.0000000e+00 1.02e+02 4.07e+01  -1.0 1.68e+03    -  1.00e+00 3.87e-03h  9
   5  0.0000000e+00 1.03e+02 5.06e+01  -1.0 2.26e+03    -  1.00e+00 3.87e-03h  9
   6  0.0000000e+00 1.04e+02 6.06e+01  -1.0 2.83e+03    -  1.00e+00 3.87e-03h  9
   7  0.0000000e+00 1.04e+02 7.05e+01  -1.0 3.40e+03    -  1.00e+00 3.87e-03h  9
   8  0.0000000e+00 1.05e+02 8.05e+01  -1.0 3.96e+03    -  1.00e+00 3.87e-03h  9
   9  0.0000000e+00 1.06e+02 9.05e+01  -1.0 4.52e+03    -  1.00e+00 3.87e-03h  9
iter    objective    inf_pr   inf_du lg(mu)  ||d||  lg(rg) alpha_du alpha_pr  ls
  10  0.0000000e+00 1.06e+02 1.00e+02  -1.0 5.06e+03    -  1.00e+00 3.87e-03h  9
  11  0.0000000e+00 7.06e+04 1.11e+00  -1.0 5.60e+03    -  1.00e+00 9.90e-01w  1
  12  0.0000000e+00 7.05e+02 1.03e+01  -1.0 7.20e+04    -  1.00e+00 9.90e-01w  1
  13  0.0000000e+00 6.86e-04 1.00e-06  -1.0 7.20e+02    -  1.00e+00 1.00e+00h  1
  14  0.0000000e+00 9.09e-13 0.00e+00  -3.8 6.87e-04    -  1.00e+00 1.00e+00h  1

Number of Iterations....: 14

                                   (scaled)                 (unscaled)
Objective...............:   0.0000000000000000e+00    0.0000000000000000e+00
Dual infeasibility......:   0.0000000000000000e+00    0.0000000000000000e+00
Constraint violation....:   9.0949470177292824e-13    9.0949470177292824e-13
Variable bound violation:   0.0000000000000000e+00    0.0000000000000000e+00
Complementarity.........:   0.0000000000000000e+00    0.0000000000000000e+00
Overall NLP error.......:   9.0949470177292824e-13    9.0949470177292824e-13


Number of objective function evaluations             = 125
Number of objective gradient evaluations             = 15
Number of equality constraint evaluations            = 125
Number of inequality constraint evaluations          = 0
Number of equality constraint Jacobian evaluations   = 15
Number of inequality constraint Jacobian evaluations = 0
Number of Lagrangian Hessian evaluations             = 14
Total seconds in IPOPT                               = 0.922

EXIT: Optimal Solution Found.
Model sizes (from IPOPT): n_cons=None, nnz_jac=None, nnz_hess=None
Number of Iterations....: 14

                                   (scaled)                 (unscaled)
Objective...............:  0.0000000000000000e+00   0.0000000000000000e+00
Dual infeasibility......:  1.0000000000000000e+00   1.0000000000000000e+00
Constraint violation....:  4.9500000000000000e+01   9.9000000000000000e+01
Complementarity.........:  3.9700001003000000e+02   3.9700001003000000e+02
Overall NLP error.......:  3.9700001003000000e+02   3.9700001003000000e+02

Number of objective function evaluations             = 125
Number of objective gradient evaluations             = 15
Number of equality constraint evaluations            = 125
Number of inequality constraint evaluations          = 0
Number of equality constraint Jacobian evaluations   = 15
Number of inequality constraint Jacobian evaluations = 0
Number of Lagrangian Hessian evaluations             = 14
Total CPU secs in IPOPT (w/o function evaluations)   = None
Total CPU secs in NLP function evaluations           = None
EXIT: Optimal Solution Found.
Optimal experiment values: 
	Initial concentration: 5.00
	Temperature values: [500.00, 300.00, 300.00, 300.00, 300.00, 300.00, 300.00, 300.00, 300.00]
FIM at optimal design:
 [[  1745.81511961   1599.2189325   -3512.47883641  -7589.23798506]
 [  1599.2189325    3525.64014331  -2900.9433435  -16465.41646749]
 [ -3512.47883641  -2900.9433435    7190.12387819  13849.90480261]
 [ -7589.23798506 -16465.41646749  13849.90480261  77673.547297  ]]
Objective value at optimal design: 26.01
['CA[0]', 'T[0]', 'T[0.125]', 'T[0.25]', 'T[0.375]', 'T[0.5]', 'T[0.625]', 'T[0.75]', 'T[0.875]', 'T[1]']
['Build Time', 'Experiment Design', 'Experiment Design Names', 'Experiment Output Names', 'Experiment Outputs', 'FIM', 'FIM Condition Number', 'Finite Difference Scheme', 'Finite Difference Step', 'Initialization Time', 'Measurement Error', 'Measurement Error Names', 'Nominal Parameter Scaling', 'Objective expression', 'Prior FIM', 'Sensitivity Matrix', 'Solve Time', 'Solver Status', 'Termination Condition', 'Termination Message', 'Unknown Parameter Names', 'Unknown Parameters', 'Wall-clock Time', 'log10 A-opt', 'log10 D-opt', 'log10 E-opt']
Solve time (s): 0.0842758750077337
Build time (s): 2.9579969123005867e-06
Initialization time (s): 0.9688616669736803
Total wall time (s): 1.0531404999783263
